; --------------------------------------------------------------------------
; File     : ODRL432-1.smt2
; Domain   : ODRL Spatial Axis Profile
; Problem  : 3 axes: touch × open-gap × touch → Conflict
; Expected : unsat
; Verdict  : Conflict
; Category : Boundary
;
; ODRL Policy (Turtle):
;   @prefix odrl: <http://www.w3.org/ns/odrl/2/> .
;   @prefix oax:  <http://w3id.org/odrl/spatial-axis#> .
;   @prefix xsd:  <http://www.w3.org/2001/XMLSchema#> .
;   @prefix ex:   <https://example.org/> .
;
;   ex:policyA a odrl:Set ;
;     odrl:permission [
;       odrl:action odrl:use ;
;       odrl:constraint [
;         odrl:leftOperand oax:absoluteSizeWidth ;
;         odrl:operator odrl:lteq ;
;         odrl:rightOperand "600"^^xsd:decimal ] ;
;       odrl:constraint [
;         odrl:leftOperand oax:absoluteSizeHeight ;
;         odrl:operator odrl:lteq ;
;         odrl:rightOperand "400"^^xsd:decimal ] ;
;       odrl:constraint [
;         odrl:leftOperand oax:absoluteSizeDepth ;
;         odrl:operator odrl:lteq ;
;         odrl:rightOperand "200"^^xsd:decimal ] ;
;     ] .
;
;   ex:policyB a odrl:Set ;
;     odrl:permission [
;       odrl:action odrl:use ;
;       odrl:constraint [
;         odrl:leftOperand oax:absoluteSizeWidth ;
;         odrl:operator odrl:gteq ;
;         odrl:rightOperand "600"^^xsd:decimal ] ;
;       odrl:constraint [
;         odrl:leftOperand oax:absoluteSizeHeight ;
;         odrl:operator odrl:gt ;
;         odrl:rightOperand "400"^^xsd:decimal ] ;
;       odrl:constraint [
;         odrl:leftOperand oax:absoluteSizeDepth ;
;         odrl:operator odrl:gteq ;
;         odrl:rightOperand "200"^^xsd:decimal ] ;
;     ] .
;
; Gen      : gen_axis_suite.py
; --------------------------------------------------------------------------
(set-logic QF_LRA)
(declare-const x Real)
(declare-const y Real)
(declare-const z Real)

; --- Axis 1: width ---
(assert (> x 0))
; width: lteq 600  ∧  gteq 600
(assert (<= x 600))
(assert (>= x 600))

; --- Axis 2: height ---
(assert (> y 0))
; height: lteq 400  ∧  gt 400
(assert (<= y 400))
(assert (> y 400))

; --- Axis 3: depth ---
(assert (> z 0))
; depth: lteq 200  ∧  gteq 200
(assert (<= z 200))
(assert (>= z 200))

; Result: unsat → Conflict
(check-sat)
(exit)
